NAME: kp_test_instance
OBJSENSE
 MIN
ROWS
 N cost
 L IDB
 L KP
 L I0
 L I1
 L I2
 L I3
 L I4
 L I5
 L I6
 L I7
 L I8
 L I9
 L I10
 L I11
 L I12
 L I13
 L I14
 L I15
 L I16
 L I17
 L I18
 L I19
 L I20
 L I21
 L I22
 L I23
 L I24
COLUMNS
 x0 cost 0
 x0 IDB 1
 x0 I0 1
 x1 cost 0
 x1 IDB 1
 x1 I1 1
 x2 cost 0
 x2 IDB 1
 x2 I2 1
 x3 cost 0
 x3 IDB 1
 x3 I3 1
 x4 cost 0
 x4 IDB 1
 x4 I4 1
 x5 cost 0
 x5 IDB 1
 x5 I5 1
 x6 cost 0
 x6 IDB 1
 x6 I6 1
 x7 cost 0
 x7 IDB 1
 x7 I7 1
 x8 cost 0
 x8 IDB 1
 x8 I8 1
 x9 cost 0
 x9 IDB 1
 x9 I9 1
 x10 cost 0
 x10 IDB 1
 x10 I10 1
 x11 cost 0
 x11 IDB 1
 x11 I11 1
 x12 cost 0
 x12 IDB 1
 x12 I12 1
 x13 cost 0
 x13 IDB 1
 x13 I13 1
 x14 cost 0
 x14 IDB 1
 x14 I14 1
 x15 cost 0
 x15 IDB 1
 x15 I15 1
 x16 cost 0
 x16 IDB 1
 x16 I16 1
 x17 cost 0
 x17 IDB 1
 x17 I17 1
 x18 cost 0
 x18 IDB 1
 x18 I18 1
 x19 cost 0
 x19 IDB 1
 x19 I19 1
 x20 cost 0
 x20 IDB 1
 x20 I20 1
 x21 cost 0
 x21 IDB 1
 x21 I21 1
 x22 cost 0
 x22 IDB 1
 x22 I22 1
 x23 cost 0
 x23 IDB 1
 x23 I23 1
 x24 cost 0
 x24 IDB 1
 x24 I24 1
 y0 cost 4
 y0 I0 1
 y0 KP 87
 y1 cost 10
 y1 I1 1
 y1 KP 94
 y2 cost 9
 y2 I2 1
 y2 KP 33
 y3 cost 12
 y3 I3 1
 y3 KP 42
 y4 cost 34
 y4 I4 1
 y4 KP 82
 y5 cost 44
 y5 I5 1
 y5 KP 95
 y6 cost 53
 y6 I6 1
 y6 KP 93
 y7 cost 37
 y7 I7 1
 y7 KP 64
 y8 cost 40
 y8 I8 1
 y8 KP 66
 y9 cost 58
 y9 I9 1
 y9 KP 93
 y10 cost 52
 y10 I10 1
 y10 KP 81
 y11 cost 8
 y11 I11 1
 y11 KP 12
 y12 cost 37
 y12 I12 1
 y12 KP 55
 y13 cost 48
 y13 I13 1
 y13 KP 61
 y14 cost 67
 y14 I14 1
 y14 KP 84
 y15 cost 71
 y15 I15 1
 y15 KP 79
 y16 cost 18
 y16 I16 1
 y16 KP 17
 y17 cost 45
 y17 I17 1
 y17 KP 42
 y18 cost 72
 y18 I18 1
 y18 KP 63
 y19 cost 20
 y19 I19 1
 y19 KP 16
 y20 cost 15
 y20 I20 1
 y20 KP 12
 y21 cost 36
 y21 I21 1
 y21 KP 24
 y22 cost 51
 y22 I22 1
 y22 KP 28
 y23 cost 44
 y23 I23 1
 y23 KP 23
 y24 cost 47
 y24 I24 1
 y24 KP 2
RHS
 rhs IDB 7
 rhs KP 486
 rhs I0 1
 rhs I1 1
 rhs I2 1
 rhs I3 1
 rhs I4 1
 rhs I5 1
 rhs I6 1
 rhs I7 1
 rhs I8 1
 rhs I9 1
 rhs I10 1
 rhs I11 1
 rhs I12 1
 rhs I13 1
 rhs I14 1
 rhs I15 1
 rhs I16 1
 rhs I17 1
 rhs I18 1
 rhs I19 1
 rhs I20 1
 rhs I21 1
 rhs I22 1
 rhs I23 1
 rhs I24 1
BOUNDS
 LI bound x0 0.0000000
 UI bound x0 1.0000000
 LI bound x1 0.0000000
 UI bound x1 1.0000000
 LI bound x2 0.0000000
 UI bound x2 1.0000000
 LI bound x3 0.0000000
 UI bound x3 1.0000000
 LI bound x4 0.0000000
 UI bound x4 1.0000000
 LI bound x5 0.0000000
 UI bound x5 1.0000000
 LI bound x6 0.0000000
 UI bound x6 1.0000000
 LI bound x7 0.0000000
 UI bound x7 1.0000000
 LI bound x8 0.0000000
 UI bound x8 1.0000000
 LI bound x9 0.0000000
 UI bound x9 1.0000000
 LI bound x10 0.0000000
 UI bound x10 1.0000000
 LI bound x11 0.0000000
 UI bound x11 1.0000000
 LI bound x12 0.0000000
 UI bound x12 1.0000000
 LI bound x13 0.0000000
 UI bound x13 1.0000000
 LI bound x14 0.0000000
 UI bound x14 1.0000000
 LI bound x15 0.0000000
 UI bound x15 1.0000000
 LI bound x16 0.0000000
 UI bound x16 1.0000000
 LI bound x17 0.0000000
 UI bound x17 1.0000000
 LI bound x18 0.0000000
 UI bound x18 1.0000000
 LI bound x19 0.0000000
 UI bound x19 1.0000000
 LI bound x20 0.0000000
 UI bound x20 1.0000000
 LI bound x21 0.0000000
 UI bound x21 1.0000000
 LI bound x22 0.0000000
 UI bound x22 1.0000000
 LI bound x23 0.0000000
 UI bound x23 1.0000000
 LI bound x24 0.0000000
 UI bound x24 1.0000000
 LI bound y0 0.0000000
 UI bound y0 1.0000000
 LI bound y1 0.0000000
 UI bound y1 1.0000000
 LI bound y2 0.0000000
 UI bound y2 1.0000000
 LI bound y3 0.0000000
 UI bound y3 1.0000000
 LI bound y4 0.0000000
 UI bound y4 1.0000000
 LI bound y5 0.0000000
 UI bound y5 1.0000000
 LI bound y6 0.0000000
 UI bound y6 1.0000000
 LI bound y7 0.0000000
 UI bound y7 1.0000000
 LI bound y8 0.0000000
 UI bound y8 1.0000000
 LI bound y9 0.0000000
 UI bound y9 1.0000000
 LI bound y10 0.0000000
 UI bound y10 1.0000000
 LI bound y11 0.0000000
 UI bound y11 1.0000000
 LI bound y12 0.0000000
 UI bound y12 1.0000000
 LI bound y13 0.0000000
 UI bound y13 1.0000000
 LI bound y14 0.0000000
 UI bound y14 1.0000000
 LI bound y15 0.0000000
 UI bound y15 1.0000000
 LI bound y16 0.0000000
 UI bound y16 1.0000000
 LI bound y17 0.0000000
 UI bound y17 1.0000000
 LI bound y18 0.0000000
 UI bound y18 1.0000000
 LI bound y19 0.0000000
 UI bound y19 1.0000000
 LI bound y20 0.0000000
 UI bound y20 1.0000000
 LI bound y21 0.0000000
 UI bound y21 1.0000000
 LI bound y22 0.0000000
 UI bound y22 1.0000000
 LI bound y23 0.0000000
 UI bound y23 1.0000000
 LI bound y24 0.0000000
 UI bound y24 1.0000000
ENDATA